
Gurobi 7.0.1 (win64) logging started 02/07/18 13:02:01

Set parameter TimeLimit to value 3600
Set parameter Threads to value 4

Gurobi Optimizer version 7.0.1 build v7.0.1rc0 (win64)
Copyright (c) 2016, Gurobi Optimization, Inc.

Read LP format model from file waterstop_5_180114.lp
Reading time = 0.38 seconds
Objective: 59766 rows, 20988 columns, 321549 nonzeros
Optimize a model with 59766 rows, 20988 columns and 321549 nonzeros
Variable types: 135 continuous, 20853 integer (0 binary)
Coefficient statistics:
  Matrix range     [3e-01, 1e+02]
  Objective range  [1e+00, 1e+00]
  Bounds range     [1e+00, 1e+00]
  RHS range        [1e+00, 1e+02]
Presolve removed 23438 rows and 2323 columns
Presolve time: 1.77s
Presolved: 36328 rows, 18665 columns, 145709 nonzeros
Variable types: 84 continuous, 18581 integer (18581 binary)

Root simplex log...

Iteration    Objective       Primal Inf.    Dual Inf.      Time
    7347    9.3198257e-05   5.175223e+00   0.000000e+00      5s
    8018    0.0000000e+00   0.000000e+00   0.000000e+00      6s

Root relaxation: objective 0.000000e+00, 8018 iterations, 3.46 seconds
Total elapsed time = 10.92s
Total elapsed time = 18.61s
Total elapsed time = 22.44s

    Nodes    |    Current Node    |     Objective Bounds      |     Work
 Expl Unexpl |  Obj  Depth IntInf | Incumbent    BestBd   Gap | It/Node Time

     0     0    0.00000    0  458          -    0.00000      -     -   26s
     0     0    0.00000    0  461          -    0.00000      -     -   48s
     0     0    0.00000    0  525          -    0.00000      -     -   50s
     0     0    0.00000    0  633          -    0.00000      -     -   56s
     0     0    0.00000    0  596          -    0.00000      -     -   59s
     0     0    0.00000    0  458          -    0.00000      -     -   91s
     0     0    0.00000    0  513          -    0.00000      -     -   95s
     0     0    0.00000    0  429          -    0.00000      -     -  130s
     0     0    0.00000    0  546          -    0.00000      -     -  133s
     0     0    0.00000    0  268          -    0.00000      -     -  168s
     0     0    0.00000    0  334          -    0.00000      -     -  183s
     0     0    0.00000    0  242          -    0.00000      -     -  211s
     0     0    0.00000    0  306          -    0.00000      -     -  213s
     0     0    0.00000    0  310          -    0.00000      -     -  248s
     0     0    0.00000    0  452          -    0.00000      -     -  253s
     0     0    0.00000    0  451          -    0.00000      -     -  288s
     0     0    0.00000    0  451          -    0.00000      -     -  312s
     0     2    0.00000    0  451          -    0.00000      -     -  370s
     1     4    0.00000    1  470          -    0.00000      - 17537  376s
     3     8    0.00000    2  461          -    0.00000      -  7430  385s
    15    16    0.00000    5  303          -    0.00000      -  2286  393s
    28    28    0.00000    8  275          -    0.00000      -  1330  395s
    48    50    0.00000   13  168          -    0.00000      -   877  400s
    64    65    0.00000   19  179          -    0.00000      -   827  406s
    96    97    0.00000   23  131          -    0.00000      -   695  413s
   114   117    0.00000   25  178          -    0.00000      -   699  418s
   137   138    0.00000   28  149          -    0.00000      -   691  424s
   169   168    0.00000   32  146          -    0.00000      -   700  433s
   202   203    0.00000   35  221          -    0.00000      -   711  438s
   248   249    0.00000   45  116          -    0.00000      -   671  444s
   311   312    0.00000   50  221          -    0.00000      -   643  453s
   367   369    0.00000   60  199          -    0.00000      -   646  461s
   436   437    0.00000   64  217          -    0.00000      -   657  470s
   495   500    0.00000   70  238          -    0.00000      -   678  483s
   557   559    0.00000   81  174          -    0.00000      -   714  495s
   648   648    0.00000   90  210          -    0.00000      -   705  507s
   762   762    0.00000  104  202          -    0.00000      -   689  520s
   882   883    0.00000  114  228          -    0.00000      -   675  532s
   994   997    0.00000  126  299          -    0.00000      -   677  546s
  1148  1145    0.00000  138  222          -    0.00000      -   655  561s
  1398  1382    0.00000  154  195          -    0.00000      -   609  575s
  1542  1507    0.00000  170  226          -    0.00000      -   608  590s
  1673  1639    0.00000  189  215          -    0.00000      -   618  606s
  1891  1835    0.44751  204  289          -    0.00000      -   606  622s
  2044  1979    6.22815  229  351          -    0.00000      -   612  638s
  2220  2161   17.00646  253  383          -    0.00000      -   613  653s
  2412  2361   32.51296  285  368          -    0.00000      -   613  669s
  2642  2566   96.05733  323  311          -    0.00000      -   606  687s
  3004  2887  105.58637  270  451          -    0.00000      -   578  712s
  3006  2888   50.76669  216  176          -    0.00000      -   578  727s
  3007  2889   16.48800  123  359          -    0.00000      -   578  770s
  3008  2890   15.10919   15  442          -    0.00000      -   577  775s
  3009  2890    0.00000  161  211          -    0.00000      -   577  874s
  3010  2891   34.05794  154  286          -    0.00000      -   577  879s
  3011  2892   35.97423  209  247          -    0.21833      -   577  931s
  3012  2892   61.92131  235  326          -    5.00000      -   577  937s
  3013  2893   86.49286  243  185          -    5.00000      -   577 1009s
  3014  2894  131.06221  272  336          -    5.00000      -   576 1015s
  3015  2894    5.00000  168  249          -    5.00000      -   576 1108s
  3016  2895   17.60149  140  608          -    5.05101      -   576 1128s
  3017  2896    5.78788   98  230          -    5.78788      -   576 1247s
  3018  2896   46.06735  214  437          -    5.78788      -   576 1252s
  3019  2897   14.06095  154  374          -    5.78788      -   575 1379s
  3020  2898   19.98539  134  421          -    5.78788      -   575 1383s
  3021  2898   38.54622  187  257          -    5.78788      -   575 1453s
  3022  2899   15.10953   31  432          -    5.78788      -   575 1457s
  3023  2900    5.78788   64  546          -    5.78788      -   575 1500s
  3025  2901   52.90777  231  194          -    5.78788      -   574 1573s
  3026  2902   50.76669  216  548          -    5.78788      -   574 1579s
  3027  2902   16.48800  123  120          -    5.78788      -   574 1649s
  3028  2903   15.10919   15  508          -    5.78788      -   574 1655s
  3029  2904    5.78788  161  329          -    5.78788      -   573 1723s
  3030  2904   34.05794  154  262          -    5.78788      -   573 1756s
  3032  2907   61.92131  235  451          -    5.78788      -   345 1770s
  3034  2908  131.06221  272  177          -    5.78788      -   345 1784s
  3035  2909    5.78788  168  250          -    5.78788      -   345 1823s
  3036  2910   17.60149  140  266          -    5.78788      -   344 1830s
  3037  2910    5.78788   98  253          -    5.78788      -   344 1870s
  3038  2911   46.06735  214  320          -    5.78788      -   344 1875s
  3039  2912   14.06095  154  159          -    5.78788      -   344 1925s
  3040  2912   19.98539  134  272          -    5.78788      -   344 1931s
  3041  2913   38.54622  187  138          -    5.78788      -   344 1975s
  3043  2914    5.78788   64  105          -    5.78788      -   344 2013s
  3044  2915  105.58637  270  257          -    5.78788      -   344 2017s
  3045  2916   52.90777  231  122          -    5.78788      -   343 2054s
  3046  2916   50.76669  216  249          -    5.78788      -   343 2059s
  3047  2917   16.48800  123  517          -    5.78788      -   343 2115s
  3048  2918   15.10919   15  468          -    5.78788      -   343 2120s
  3049  2918    5.78788  161  161          -    5.78788      -   343 2176s
  3050  2919   34.05794  154  391          -    5.78788      -   343 2181s
  3051  2920   35.97423  209  168          -    5.78788      -   343 2238s
  3052  2920   61.92131  235  425          -    5.78788      -   343 2243s
  3053  2921   86.49286  243  245          -    5.78788      -   343 2291s
  3054  2922  131.06221  272  245          -    5.78788      -   342 2298s
  3055  2922    5.78788  168  245          -    5.78788      -   342 2312s
  3056  2926    5.78788   27  256          -    5.78788      -   540 2414s
  3058  2927    5.78788   28  286          -    5.78788      -   563 2519s
  3062  2929    5.78788   29  270          -    5.78788      -   571 2532s
  3066  2931    5.78788   29  252          -    5.78788      -   572 2552s
  3070  2930    5.78788   30  256          -    5.78788      -   572 2564s
  3074  2930   16.13333   30  245          -    5.78788      -   572 2580s
  3078  2931    5.78788   31  311          -    5.78788      -   573 2601s
  3082  2932    5.78788   31  304          -    5.78788      -   573 2618s
  3086  2931    5.78788   32  303          -    5.78788      -   573 2632s
  3091  2931 infeasible   32               -    5.78788      -   574 2663s
  3097  2935 infeasible   33               -    5.78788      -   577 2675s
  3103  2935    5.78788   34  263          -    5.78788      -   579 2695s
  3110  2938 infeasible   34               -    5.78788      -   580 2709s
  3118  2941 infeasible   35               -    5.78788      -   581 2721s
  3127  2945 infeasible   36               -    5.78788      -   581 2734s
  3136  2947    5.78788   38  218          -    5.78788      -   583 2756s
  3145  2943    5.78788   39  220          -    5.78788      -   585 2767s
  3155  2949 infeasible   41               -    5.78788      -   589 2781s
  3165  2948   11.74413   42  385          -    5.78788      -   592 2803s
  3169  2948 infeasible   42               -    5.78788      -   597 2838s
  3177  2947    5.78788   30  317          -    5.78788      -   603 2875s
  3183  2955    5.78788   31  309          -    5.78788      -   609 2903s
  3193  2949    5.78788   34  300          -    5.78788      -   612 2924s
  3209  2951    5.78788   41  234          -    5.78788      -   618 2974s
  3237  2963    5.78788   57  275          -    5.78788      -   644 3072s
  3323  2988    5.78788   92  347          -    5.78788      -   656 3212s
  3502  3037 infeasible  140               -    5.78788      -   666 3325s
  3706  3110  151.41945  194  220          -    5.78788      -   686 3418s
  3962  3219   25.69156  286  279          -    5.78788      -   685 3506s
  4159  3242  162.95665  317  171          -    5.78788      -   689 3594s
  4237  3262  431.53444  328  176          -    5.78788      -   701 3600s

Cutting planes:
  Gomory: 1
  Implied bound: 156
  Projected Implied bound: 15
  MIR: 44
  Flow cover: 26
  Zero half: 5

Explored 4246 nodes (5103683 simplex iterations) in 3600.04 seconds
Thread count was 4 (of 20 available processors)

Solution count 0
Pool objective bound 5.78788

Time limit reached
Best objective -, best bound 5.787878787881e+00, gap -

Unable to retrieve attribute 'X'

